







































































































62 54 48 52 23 50 39 73 76 
26 0 66 5 7 40 11 1 
68 55 12 60 27 3 63 
17 22 49 64 19 75 74 29 
67 38 70 6 57 16 42 
53 35 34 47 43 41 24 2 
46 59 51 31 30 25 71 
10 56 33 4 58 69 18 28 
37 44 9 21 20 72 13 
65 8 61 45 36 32 15 
14 
